variable seed equal 123123
variable dt equal 1.0
variable t_damp equal 100*dt
variable temp equal 320.00 #Temperature to run simulation at
variable N_atoms equal 1200


log waterT320.lammps

#define simulation settings
units real
atom_style full
#create box
    ##initial box can be defined to set a density but will be changed during npt if setting pressure  
region box block -20.602669916255173 20.602669916255173 -20.602669916255173 20.602669916255173 -20.602669916255173 20.602669916255173
create_box 2 box bond/types 1 angle/types 1 &
            extra/bond/per/atom 2 extra/angle/per/atom 1 extra/special/per/atom 2
#54.992 mol/L
#set masses of atoms based on index in molecule file
mass 1 15.9994 #O
mass 2 1.008 #H


pair_style lj/cut/coul/long 8.0 #needs to be minimum of ~8.0, box should be bigger than 2 times this number
kspace_style	pppm 1.0e-4
neigh_modify one 8000
pair_coeff 1 1 0.1521 3.1507 #Coefficients for pair, bond, and angle defined by force field parameters
pair_coeff 2 2 0.0 1.0

bond_style harmonic
bond_coeff 1 5000 0.9572

angle_style harmonic
angle_coeff 1 500 104.52

molecule water tip3p.mol
create_atoms 0 random ${N_atoms} ${seed} NULL mol water 25367 overlap 1.60

#fix water molecule geometry by shake
fix 1 all shake 0.001 10 0 b 1 a 1
#minimize 0.0 0.0 1000 10000

reset_timestep 0
velocity all create ${temp} ${seed} rot yes dist gaussian

#simulate npt
fix setPres all npt temp ${temp} ${temp} ${t_damp} iso 0.9869 0.9869 1000.0
thermo_style custom step temp press etotal pe vol fmax
thermo 1000
run 1000000
unfix setPres

reset_timestep 0

#equilibrate nvt
fix integrate all nvt temp ${temp} ${temp} ${t_damp}

compute 1 all pe
compute 2 all ke
compute temps all temp
compute 3 all pressure temps
compute pe_coul all pair lj/cut/coul/long ecoul


thermo_style custom step temp press etotal pe vol
thermo 10000
run 800000
reset_timestep 0

#simulate nvt
dump 1 all custom 100000 dump.atom id m q x y z fx fy fz c_pe_coul
dump_modify 1 sort id

thermo_style custom step temp press etotal pe vol

thermo 100000
run 1000000
